687, 0, 0, 71, 2
688, 0, 1, 38, 3
689, 0, 2, 98, 1
690, 0, 3, 30, 0
691, 1, 0, 39, 2
692, 1, 1, 42, 1
693, 1, 2, 88, 3
694, 1, 3, 38, 0
695, 2, 0, 77, 1
696, 2, 1, 45, 3
697, 2, 2, 75, 2
698, 2, 3, 62, 0
699, 3, 0, 86, 2
700, 3, 1, 32, 1
701, 3, 2, 71, 3
702, 3, 3, 63, 0
